20 20
15 30 1
3 13 1
27 7 1
12 29 1
2 7 1
14 19 1
12 13 1
2 21 1
4 16 1
14 17 1
4 19 1
30 32 1
17 5 1
8 2 1
23 33 1
23 12 1
15 5 1
19 19 1
31 4 1
23 27 1
40 40 
40 40 
40 40 
40 40 
40 40 
40 40 
40 40 
40 40 
40 40 
40 40 
40 40 
40 40 
40 40 
40 40 
40 40 
40 40 
40 40 
40 40 
40 40 
40 40 
